DMABN
1.0
       25.0000000000         0.0000000000         0.0000000000
        0.0000000000        15.0000000000         0.0000000000
        0.0000000000         0.0000000000        10.0000000000
    N    C    H
    2    9   10
Direct
     0.408218307         0.500000413         0.498865175
     0.680018158         0.499995073         0.500323772
     0.547946854         0.419692357         0.499927521
     0.492637863         0.419354439         0.499732018
     0.576726189         0.500000604         0.499986506
     0.463189087         0.500009060         0.499454927
     0.492641602         0.580659358         0.499749327
     0.547951775         0.580311839         0.499943924
     0.378881531         0.416270606         0.500563049
     0.378864594         0.583714994         0.500532913
     0.633751030         0.499997997         0.500191975
     0.569449844         0.356985919         0.500094032
     0.472105064         0.355962499         0.499815416
     0.472115898         0.644056257         0.499850702
     0.569457779         0.643015544         0.500123739
     0.388222504         0.375032043         0.413122177
     0.336178398         0.430335045         0.498956203
     0.387469139         0.377070808         0.590632391
     0.387422066         0.622916730         0.590619087
     0.336164436         0.569627190         0.498861408
     0.388216438         0.624961662         0.413109541
